projected/problems_b25_r0_d7_m100_s666/_DIMACS/b25_d7_r0_s666_066.cnf
p cnf 235 405 25
c p show 1 2 3 4 5 6 7 8 9 10 11 12 13 14 15 16 17 18 19 20 21 22 23 24 25
-26 -23 0
-26 -4 0
-27 24 15 0
-28 27 0
-28 26 0
-29 -14 21 0
-30 19 0
-30 6 0
-31 30 0
-31 29 0
-32 31 0
-32 28 0
-33 -13 13 0
-34 6 -1 0
-35 34 33 0
-36 -3 0
-36 17 0
-37 -15 0
-37 4 0
-38 37 0
-38 36 0
-39 38 0
-39 35 0
-40 39 32 0
-41 -17 -23 0
-42 13 0
-42 -24 0
-43 42 0
-43 41 0
-44 -23 0
-44 -7 0
-45 -6 0
-45 8 0
-46 -8 0
-46 6 0
-47 46 45 0
-48 47 0
-48 44 0
-49 48 0
-49 43 0
-50 -12 8 0
-51 -14 13 0
-52 51 0
-52 50 0
-53 6 0
-53 -3 0
-54 -9 17 0
-55 54 0
-55 53 0
-56 55 0
-56 52 0
-57 56 49 0
-58 57 0
-58 40 0
-59 -1 -18 0
-60 -17 19 0
-61 -19 17 0
-62 61 0
-62 60 0
-63 62 0
-63 59 0
-64 -3 19 0
-65 7 0
-65 23 0
-66 65 0
-66 64 0
-67 -7 -23 0
-68 3 0
-68 -19 0
-69 68 0
-69 67 0
-70 69 66 0
-71 70 0
-71 63 0
-72 18 0
-72 2 0
-73 -15 0
-73 21 0
-74 -21 0
-74 15 0
-75 74 73 0
-76 75 72 0
-77 -9 -3 0
-78 3 9 0
-79 78 0
-79 77 0
-80 -4 9 0
-81 80 0
-81 79 0
-82 81 76 0
-83 82 71 0
-84 23 -14 0
-85 23 0
-85 -1 0
-86 85 0
-86 84 0
-87 -23 1 0
-88 -23 0
-88 14 0
-89 88 0
-89 87 0
-90 89 86 0
-91 23 0
-91 -9 0
-92 -13 24 0
-93 92 0
-93 91 0
-94 93 0
-94 90 0
-95 -23 9 0
-96 42 95 0
-97 87 88 0
-98 84 85 0
-99 98 0
-99 97 0
-100 99 0
-100 96 0
-101 100 94 0
-102 -20 0
-102 17 0
-103 18 3 0
-104 103 0
-104 102 0
-105 9 11 0
-106 -11 -9 0
-107 106 0
-107 105 0
-108 16 0
-108 -21 0
-109 108 107 0
-110 109 104 0
-111 110 101 0
-112 111 0
-112 83 0
-113 112 0
-113 58 0
-114 -15 -12 0
-115 9 -13 0
-116 115 114 0
-117 -6 0
-117 22 0
-118 16 0
-118 -5 0
-119 118 0
-119 117 0
-120 119 116 0
-121 14 0
-121 -23 0
-122 23 0
-122 -14 0
-123 122 121 0
-124 23 0
-124 11 0
-125 124 0
-125 123 0
-126 8 0
-126 -19 0
-127 5 0
-127 -17 0
-128 127 126 0
-129 128 125 0
-130 129 120 0
-131 -17 0
-131 21 0
-132 11 -8 0
-133 132 131 0
-134 -3 0
-134 18 0
-135 -11 0
-135 -18 0
-136 18 0
-136 11 0
-137 136 135 0
-138 137 134 0
-139 138 133 0
-140 -5 8 0
-141 5 -16 0
-142 141 0
-142 140 0
-143 -10 -13 0
-144 25 21 0
-145 144 0
-145 143 0
-146 -25 0
-146 -21 0
-147 10 0
-147 13 0
-148 147 0
-148 146 0
-149 148 145 0
-150 149 0
-150 142 0
-151 150 139 0
-152 151 130 0
-153 17 -21 0
-154 -11 0
-154 8 0
-155 154 0
-155 153 0
-156 3 -18 0
-157 11 18 0
-158 -18 -11 0
-159 158 0
-159 157 0
-160 159 0
-160 156 0
-161 160 0
-161 155 0
-162 5 0
-162 -8 0
-163 -5 0
-163 16 0
-164 163 162 0
-165 146 147 0
-166 143 144 0
-167 166 0
-167 165 0
-168 167 164 0
-169 168 0
-169 161 0
-170 15 0
-170 12 0
-171 -9 0
-171 13 0
-172 171 0
-172 170 0
-173 6 -22 0
-174 -16 5 0
-175 174 173 0
-176 175 0
-176 172 0
-177 -14 23 0
-178 -23 14 0
-179 178 0
-179 177 0
-180 -23 -11 0
-181 180 179 0
-182 -8 19 0
-183 -5 17 0
-184 183 0
-184 182 0
-185 184 0
-185 181 0
-186 185 0
-186 176 0
-187 186 169 0
-188 187 0
-188 152 0
-189 3 -8 0
-190 24 0
-190 15 0
-191 190 0
-191 189 0
-192 23 0
-192 24 0
-193 -20 0
-193 -7 0
-194 193 192 0
-195 194 0
-195 191 0
-196 -22 15 0
-197 -7 0
-197 -10 0
-198 197 0
-198 196 0
-199 21 0
-199 -9 0
-200 13 -4 0
-201 200 0
-201 199 0
-202 201 0
-202 198 0
-203 202 0
-203 195 0
-204 2 0
-204 -25 0
-205 189 0
-205 204 0
-206 24 3 0
-207 5 0
-207 -15 0
-208 207 0
-208 206 0
-209 208 205 0
-210 -24 0
-210 -3 0
-211 -5 15 0
-212 211 210 0
-213 -2 25 0
-214 -3 0
-214 8 0
-215 214 213 0
-216 215 212 0
-217 216 0
-217 209 0
-218 23 0
-218 20 0
-219 -19 19 0
-220 219 218 0
-221 -23 0
-221 20 0
-222 -11 0
-222 20 0
-223 222 221 0
-224 223 0
-224 220 0
-225 23 -20 0
-226 11 -20 0
-227 226 0
-227 225 0
-228 -23 -20 0
-229 19 0
-229 -19 0
-230 229 0
-230 228 0
-231 230 0
-231 227 0
-232 231 224 0
-233 232 0
-233 217 0
-234 233 0
-234 203 0
-235 234 0
-235 188 0
235 113 0
-92 -42 0
-42 -92 0
-65 -67 0
-68 -64 0
-91 -95 0
-95 -91 0
-96 -93 0
-93 -96 0
-87 -85 0
-85 -87 0
-84 -88 0
-88 -84 0
-99 -90 0
-131 -153 0
-153 -131 0
-154 -132 0
-155 -133 0
-133 -155 0
-156 -134 0
-159 -137 0
-160 -138 0
-138 -160 0
-139 -161 0
-161 -139 0
-140 -162 0
-162 -140 0
-141 -163 0
-163 -141 0
-164 -142 0
-142 -164 0
-146 -144 0
-144 -146 0
-143 -147 0
-147 -143 0
-167 -149 0
-149 -167 0
-150 -168 0
-168 -150 0
-169 -151 0
-114 -170 0
-170 -114 0
-171 -115 0
-172 -116 0
-173 -117 0
-117 -173 0
-118 -174 0
-119 -175 0
-175 -119 0
-176 -120 0
-120 -176 0
-179 -123 0
-180 -124 0
-181 -125 0
-125 -181 0
-126 -182 0
-182 -126 0
-183 -127 0
-184 -128 0
-128 -184 0
-129 -185 0
-130 -186 0
-214 -189 0
-210 -206 0
-206 -210 0
-207 -211 0
-208 -212 0
-212 -208 0
-213 -204 0
-215 -205 0
-205 -215 0
-225 -221 0
-221 -225 0
-222 -226 0
-223 -227 0
-228 -218 0
-218 -228 0
-229 -219 0
-219 -229 0
-220 -230 0
-230 -220 0
