projected/problems_b25_r0_d7_m100_s666/b25_d7_r0_s666_066.smt2
(set-logic QF_UF)
(declare-fun A0 () Bool)
(declare-fun A1 () Bool)
(declare-fun A2 () Bool)
(declare-fun A3 () Bool)
(declare-fun A4 () Bool)
(declare-fun A5 () Bool)
(declare-fun A6 () Bool)
(declare-fun A7 () Bool)
(declare-fun A8 () Bool)
(declare-fun A9 () Bool)
(declare-fun A10 () Bool)
(declare-fun A11 () Bool)
(declare-fun A12 () Bool)
(declare-fun A13 () Bool)
(declare-fun A14 () Bool)
(declare-fun A15 () Bool)
(declare-fun A16 () Bool)
(declare-fun A17 () Bool)
(declare-fun A18 () Bool)
(declare-fun A19 () Bool)
(declare-fun A20 () Bool)
(declare-fun A21 () Bool)
(declare-fun A22 () Bool)
(declare-fun A23 () Bool)
(declare-fun A24 () Bool)
(assert (let ((.def_0 (not A3))) (let ((.def_1 (not A22))) (let ((.def_2 (and .def_1 .def_0))) (let ((.def_3 (or A23 A14))) (let ((.def_4 (and .def_3 .def_2))) (let ((.def_5 (not A20))) (let ((.def_6 (and A13 .def_5))) (let ((.def_7 (not A5))) (let ((.def_8 (not A18))) (let ((.def_9 (or .def_8 .def_7))) (let ((.def_10 (or .def_9 .def_6))) (let ((.def_11 (not .def_10))) (let ((.def_12 (and .def_11 .def_4))) (let ((.def_13 (not A12))) (let ((.def_14 (or .def_13 A12))) (let ((.def_15 (not A0))) (let ((.def_16 (or A5 .def_15))) (let ((.def_17 (or .def_16 .def_14))) (let ((.def_18 (not A16))) (let ((.def_19 (or A2 .def_18))) (let ((.def_20 (or A14 .def_0))) (let ((.def_21 (or .def_20 .def_19))) (let ((.def_22 (not .def_21))) (let ((.def_23 (and .def_22 .def_17))) (let ((.def_24 (or .def_23 .def_12))) (let ((.def_25 (and A16 A22))) (let ((.def_26 (not .def_25))) (let ((.def_27 (or .def_13 A23))) (let ((.def_28 (not .def_27))) (let ((.def_29 (and .def_28 .def_26))) (let ((.def_30 (not .def_29))) (let ((.def_31 (not A6))) (let ((.def_32 (and .def_1 .def_31))) (let ((.def_33 (not .def_32))) (let ((.def_34 (not A7))) (let ((.def_35 (= .def_34 .def_7))) (let ((.def_36 (or .def_35 .def_33))) (let ((.def_37 (or .def_36 .def_30))) (let ((.def_38 (and A11 .def_34))) (let ((.def_39 (not A13))) (let ((.def_40 (or .def_39 A12))) (let ((.def_41 (not .def_40))) (let ((.def_42 (or .def_41 .def_38))) (let ((.def_43 (not .def_42))) (let ((.def_44 (not A2))) (let ((.def_45 (and A5 .def_44))) (let ((.def_46 (not .def_45))) (let ((.def_47 (not A8))) (let ((.def_48 (or .def_47 A16))) (let ((.def_49 (not .def_48))) (let ((.def_50 (or .def_49 .def_46))) (let ((.def_51 (not .def_50))) (let ((.def_52 (and .def_51 .def_43))) (let ((.def_53 (not .def_52))) (let ((.def_54 (and .def_53 .def_37))) (let ((.def_55 (not .def_54))) (let ((.def_56 (and .def_55 .def_24))) (let ((.def_57 (and A0 A17))) (let ((.def_58 (not .def_57))) (let ((.def_59 (= A18 A16))) (let ((.def_60 (and .def_59 .def_58))) (let ((.def_61 (and A6 A22))) (let ((.def_62 (and A2 .def_8))) (let ((.def_63 (= .def_62 .def_61))) (let ((.def_64 (not .def_63))) (let ((.def_65 (and .def_64 .def_60))) (let ((.def_66 (not A1))) (let ((.def_67 (not A17))) (let ((.def_68 (or .def_67 .def_66))) (let ((.def_69 (not .def_68))) (let ((.def_70 (not A14))) (let ((.def_71 (= .def_5 .def_70))) (let ((.def_72 (not .def_71))) (let ((.def_73 (or .def_72 .def_69))) (let ((.def_74 (= .def_44 A8))) (let ((.def_75 (not .def_74))) (let ((.def_76 (or .def_0 A8))) (let ((.def_77 (not .def_76))) (let ((.def_78 (or .def_77 .def_75))) (let ((.def_79 (not .def_78))) (let ((.def_80 (or .def_79 .def_73))) (let ((.def_81 (or .def_80 .def_65))) (let ((.def_82 (not .def_81))) (let ((.def_83 (and A22 .def_47))) (let ((.def_84 (not .def_83))) (let ((.def_85 (or .def_28 .def_84))) (let ((.def_86 (not .def_85))) (let ((.def_87 (or .def_1 A0))) (let ((.def_88 (not .def_87))) (let ((.def_89 (or A22 .def_39))) (let ((.def_90 (not .def_89))) (let ((.def_91 (= .def_90 .def_88))) (let ((.def_92 (= .def_91 .def_86))) (let ((.def_93 (not A19))) (let ((.def_94 (and .def_93 A16))) (let ((.def_95 (and .def_67 .def_44))) (let ((.def_96 (not .def_95))) (let ((.def_97 (and .def_96 .def_94))) (let ((.def_98 (not .def_97))) (let ((.def_99 (= A10 .def_47))) (let ((.def_100 (and A15 .def_5))) (let ((.def_101 (or .def_100 .def_99))) (let ((.def_102 (not .def_101))) (let ((.def_103 (and .def_102 .def_98))) (let ((.def_104 (and .def_103 .def_92))) (let ((.def_105 (or .def_104 .def_82))) (let ((.def_106 (not .def_105))) (let ((.def_107 (and .def_106 .def_56))) (let ((.def_108 (and .def_18 A20))) (let ((.def_109 (not .def_108))) (let ((.def_110 (not A10))) (let ((.def_111 (and .def_110 A7))) (let ((.def_112 (and .def_111 .def_109))) (let ((.def_113 (not .def_112))) (let ((.def_114 (or A2 .def_67))) (let ((.def_115 (= A17 .def_110))) (let ((.def_116 (and .def_115 .def_114))) (let ((.def_117 (not .def_116))) (let ((.def_118 (or .def_117 .def_113))) (let ((.def_119 (not .def_118))) (let ((.def_120 (not A4))) (let ((.def_121 (or .def_120 A7))) (let ((.def_122 (not .def_121))) (let ((.def_123 (not A15))) (let ((.def_124 (or A4 .def_123))) (let ((.def_125 (not .def_124))) (let ((.def_126 (or .def_125 .def_122))) (let ((.def_127 (not .def_126))) (let ((.def_128 (not A24))) (let ((.def_129 (and .def_128 .def_5))) (let ((.def_130 (not .def_129))) (let ((.def_131 (not A9))) (let ((.def_132 (or .def_131 .def_13))) (let ((.def_133 (not .def_132))) (let ((.def_134 (= .def_133 .def_130))) (let ((.def_135 (not .def_134))) (let ((.def_136 (and .def_135 .def_127))) (let ((.def_137 (not .def_136))) (let ((.def_138 (and .def_137 .def_119))) (let ((.def_139 (not A11))) (let ((.def_140 (or .def_70 .def_139))) (let ((.def_141 (not .def_140))) (let ((.def_142 (and .def_47 A12))) (let ((.def_143 (and .def_142 .def_141))) (let ((.def_144 (not A21))) (let ((.def_145 (or A5 .def_144))) (let ((.def_146 (not .def_145))) (let ((.def_147 (and A15 .def_120))) (let ((.def_148 (and .def_147 .def_146))) (let ((.def_149 (not .def_148))) (let ((.def_150 (and .def_149 .def_143))) (let ((.def_151 (not .def_150))) (let ((.def_152 (= A22 A13))) (let ((.def_153 (or .def_1 .def_110))) (let ((.def_154 (or .def_153 .def_152))) (let ((.def_155 (not .def_154))) (let ((.def_156 (and A7 .def_8))) (let ((.def_157 (not .def_156))) (let ((.def_158 (or .def_120 A16))) (let ((.def_159 (and .def_158 .def_157))) (let ((.def_160 (not .def_159))) (let ((.def_161 (or .def_160 .def_155))) (let ((.def_162 (or .def_161 .def_151))) (let ((.def_163 (= .def_162 .def_138))) (let ((.def_164 (not .def_163))) (let ((.def_165 (and .def_44 A7))) (let ((.def_166 (not A23))) (let ((.def_167 (or .def_166 .def_70))) (let ((.def_168 (or .def_167 .def_165))) (let ((.def_169 (not .def_168))) (let ((.def_170 (and A22 A23))) (let ((.def_171 (not .def_170))) (let ((.def_172 (and .def_93 .def_31))) (let ((.def_173 (not .def_172))) (let ((.def_174 (and .def_173 .def_171))) (let ((.def_175 (not .def_174))) (let ((.def_176 (and .def_175 .def_169))) (let ((.def_177 (not .def_176))) (let ((.def_178 (or .def_144 A14))) (let ((.def_179 (not .def_178))) (let ((.def_180 (or A6 A9))) (let ((.def_181 (or .def_180 .def_179))) (let ((.def_182 (and A20 .def_47))) (let ((.def_183 (not .def_182))) (let ((.def_184 (and .def_13 A3))) (let ((.def_185 (or .def_184 .def_183))) (let ((.def_186 (or .def_185 .def_181))) (let ((.def_187 (or .def_186 .def_177))) (let ((.def_188 (not .def_187))) (let ((.def_189 (and .def_166 .def_44))) (let ((.def_190 (not .def_189))) (let ((.def_191 (and A4 .def_70))) (let ((.def_192 (and .def_191 .def_190))) (let ((.def_193 (not .def_192))) (let ((.def_194 (or .def_66 A24))) (let ((.def_195 (or .def_165 .def_194))) (let ((.def_196 (not .def_195))) (let ((.def_197 (= .def_196 .def_193))) (let ((.def_198 (or A22 .def_93))) (let ((.def_199 (not .def_198))) (let ((.def_200 (and .def_110 A19))) (let ((.def_201 (or .def_200 .def_199))) (let ((.def_202 (or .def_1 .def_93))) (let ((.def_203 (not .def_202))) (let ((.def_204 (and A18 .def_8))) (let ((.def_205 (not .def_204))) (let ((.def_206 (or .def_205 .def_203))) (let ((.def_207 (not .def_206))) (let ((.def_208 (= .def_207 .def_201))) (let ((.def_209 (not .def_208))) (let ((.def_210 (and .def_209 .def_197))) (let ((.def_211 (and .def_210 .def_188))) (let ((.def_212 (not .def_211))) (let ((.def_213 (or .def_212 .def_164))) (let ((.def_214 (not .def_213))) (let ((.def_215 (or .def_214 .def_107))) .def_215)))))))))))))))))))))))))))))))))))))))))))))))))))))))))))))))))))))))))))))))))))))))))))))))))))))))))))))))))))))))))))))))))))))))))))))))))))))))))))))))))))))))))))))))))))))))))))))))))))))))))))))))))))))))))
(check-sat)
